Please solve the following SAT Problem encoded in DIMACS format, provide line of thoughts, write your final answer as a single solution at the end of response with header 'answer: ' : 
p cnf 5 16
-5 -3 -1 0
-3 2 -1 0
-3 5 2 0
-3 5 2 0
4 5 -3 0
2 -1 4 0
2 -1 -4 0
-5 -1 -3 0
-5 -3 2 0
4 -3 -1 0
3 -1 -5 0
-5 2 -3 0
2 -1 -3 0
-1 3 -5 0
-1 -5 4 0
4 -5 -3 0

